160 angstroemd0                         
   1.00000000000000     
     8.3419748921559389   -0.1029301057830168    0.0100009428183591
    -0.1029301057830168    8.3419748921559371    0.0100009428183591
     0.0300335032379939    0.0300335032379938   24.8918614273375844
   Ga   O 
    64    96
Direct
  0.3826636499485414  0.3837480393489647  0.6274809386750925
  0.8773746218989839  0.8841889870251264  0.2959005272856615
  0.6392878930553830  0.6375767092966573  0.0379082116371800
  0.1271511059870556  0.1242459810319425  0.7059985541715438
  0.1336659314474160  0.1320870287013742  0.0380616735538975
  0.1162520134265971  0.1173365281448387  0.3725190821861579
  0.6386785203309857  0.1403334265839496  0.5399287939505869
  0.3757536415061771  0.3728491514738556  0.2940015124113624
  0.8837744614967449  0.3779354582153313  0.7960312516162442
  0.3859841130645579  0.8807246615006048  0.1257296905171913
  0.8811618942259195  0.8857072384101813  0.6256686961581036
  0.6192755102241665  0.1140164997473090  0.8742704155258266
  0.6142934971644990  0.6188380219110591  0.3743311812070663
  0.8835920199924902  0.3834485044142080  0.1272929851376725
  0.3679124986585369  0.3663344827521102  0.9619387236736974
  0.8673137952767999  0.3689715742964144  0.4644825693890867
  0.1165518599408235  0.6164080689885280  0.8727072112034895
  0.6158114236284576  0.6226254672847592  0.7040994511230976
  0.3729895060682052  0.8746161102920424  0.7940175945909548
  0.1220646086997894  0.6162259917274937  0.2039688276115233
  0.3596669815167113  0.8613209511789235  0.4600711839313192
  0.1310280021226927  0.6326862511651260  0.5355173554757653
  0.8624230067796244  0.8607125248284707  0.9620920526937703
  0.6253835255727680  0.1270107610678539  0.2059825904293572
  0.9924109850882078  0.7337177821337515  0.7462785013040193
  0.2603181091992202  0.5152204679921543  0.0783855088304215
  0.2497729017190675  0.5002869675045873  0.7500136952643037
  0.7704444381163414  0.7683591324981790  0.1672251708456394
  0.7500484186987039  0.9996693787624384  0.7500185486392649
  0.2278731552276426  0.4784594861490395  0.4177974009120760
  0.5005361617154429  0.0061481443936627  0.6667735739076318
  0.9989654137798902  0.9932637039552370  0.8335905343843243
  0.9997517066122720  0.0015602722472223  0.4995244808122809
  0.7387786596473734  0.9856590252208988  0.4220542503021505
  0.4984400152382478  0.5002481169785474  0.5004754156705175
  0.9997130821350935  0.2502274699680757  0.2499863624377775
  0.2415072324998405  0.9823793830011720  0.9218837207210402
  0.9847801964528283  0.2396821819292594  0.9216148675559035
  0.2336974798010693  0.9924047109440017  0.2462597482887571
  0.5003304821119865  0.7499519616377980  0.2499817030594503
  0.7662826906847831  0.5075894757313276  0.2537216608249223
  0.5176207256665197  0.2584929932916553  0.0781164629258922
  0.9979916518977889  0.5020084476001427  0.0000001585123428
  0.0215406028035710  0.2721267704485286  0.5822025808180374
  0.0217282630755306  0.7711868489284531  0.0815828652190205
  0.5067367177543280  0.5010346187309571  0.1664097378616314
  0.4833114761283100  0.2406863958262294  0.4224212518235537
  0.7725801133519495  0.0205710672019714  0.0818176994634157
  0.2409848884812055  0.7421796410402584  0.6625207701718738
  0.2428712689991879  0.2417514819125014  0.1632925501796682
  0.9771979438308351  0.7289743093750807  0.4179010742638302
  0.5075956045267056  0.2663026496176963  0.7537404839969359
  0.7687384392749771  0.2706330806443474  0.6677725408522638
  0.4794293302268917  0.7274199514970335  0.9181825248292540
  0.5040207480345008  0.9959796538641238  0.0000000699166023
  0.7710255196345863  0.5228013873332200  0.5820989705267161
  0.2293664533169961  0.7312618484714540  0.3322275622052595
  0.7316413601999415  0.7295550449042038  0.8327750647763856
  0.7288130496026691  0.4782712711027487  0.9184174623808432
  0.2582488890669128  0.2571291834541971  0.8367076670122283
  0.4938522128690438  0.9994638185276534  0.3332265134462862
  0.7578207548808829  0.2590153510230189  0.3374791640524961
  0.2593137947851160  0.0166887068248625  0.5775785047722164
  0.5143415469934625  0.7612214901778170  0.5779457350940786
  0.2662534479096519  0.2627422343603995  0.0858251620134982
  0.7449941913016671  0.7481831237506862  0.2493350841001594
  0.4928488323450124  0.9904330791239254  0.2525500760192871
  0.5137032630284837  0.0136065971981418  0.0807508846916533
  0.9966342876821468  0.7444454517643827  0.1618230241720882
  0.0154295077237953  0.2626772129285156  0.1709763014701396
  0.7311921034997709  0.4872805443678944  0.3294277073380116
  0.2382042776561582  0.4953105590418725  0.0030466479938945
  0.0150284405328904  0.5114737881717369  0.0812092251174073
  0.9940474680328584  0.4903105823143114  0.2490836149878554
  0.4976124997080499  0.2365519868271935  0.0028012532244273
  0.4860705829500878  0.7581233502749076  0.3293308219751114
  0.2696787475603429  0.0130246081605520  0.1706232600319864
  0.7400832542425146  0.9938775573534653  0.1625035909499651
  0.2550724721081976  0.7518058980830197  0.2505703414122888
  0.7453438537864732  0.2493903058547050  0.0894478969540014
  0.5026059379929942  0.4999152293503806  0.0849075044835334
  0.5075109711022064  0.5094985586257615  0.2473299915081132
  0.9848900623038479  0.2387181169622785  0.3289918732681152
  0.9963517462924453  0.7383545817148990  0.0039589432416018
  0.0060480076285792  0.0102207412295449  0.2509799445868013
  0.0014414099776519  0.0002484922910017  0.0801419883270836
  0.5141337718449163  0.7416530957629324  0.1706017450840689
  0.4936040642743105  0.2647301023814730  0.1641826312374970
  0.7544675179104334  0.2598094456508426  0.2520780292196916
  0.2508033809528885  0.7434169555778583  0.0886491869940994
  0.2681964672449100  0.4907235040371348  0.1631151277827798
  0.7437387435325726  0.5155697273101983  0.1713172140226987
  0.7403975831197748  0.9949961209714645  0.0039317000557750
  0.2562802308852376  0.9847324525697611  0.3285369207621253
  0.7643238571087223  0.7640868685546389  0.0876998694205197
  0.2458177814007399  0.2405316077034942  0.2478805095975159
  0.2555912455989277  0.2500030312489645  0.4104639798570480
  0.7426560582345730  0.7514964306296300  0.5886284094477662
  0.4998849325818735  0.0024785095577476  0.5854785264921989
  0.4975217857369992  0.0001151549712309  0.4145216130265905
  0.0048149446042764  0.7661071491373536  0.4944425259341674
  0.9946105316693420  0.2363169734641229  0.5053231343896478
  0.7443016242405336  0.4970229072176529  0.6619334667120720
  0.2601840370825417  0.5055853656743156  0.3374395053525623
  0.9982881387063788  0.4995426322590842  0.4211674250474087
  0.0004577229669511  0.5017120108824923  0.5788328480499333
  0.5073760526232889  0.2354940093287943  0.3357603818281757
  0.4899101350802537  0.7678579572466412  0.6631446986903502
  0.2409270361597684  0.9986290652370240  0.5015613456370509
  0.7579070591327782  0.0042334883975449  0.4980581612100902
  0.2623467207795460  0.7658025698690388  0.5848146644367319
  0.7341976553470452  0.2376532374934907  0.4151852030651242
  0.4889615678413815  0.4842607347549579  0.4194149394838775
  0.5087318948662833  0.5170047470263468  0.5814219266207888
  0.9944148135247258  0.2398157373335548  0.6625605449966524
  0.0029768252360847  0.7556987061469527  0.3380665171230238
  0.0157389389133409  0.0110395203722620  0.5805849139402584
  0.9829951048674077  0.9912690099203054  0.4185780811767925
  0.4957677746475120  0.7420924043978639  0.5019417787845682
  0.5013710302118941  0.2590727500510246  0.4984383986533550
  0.7647896786337619  0.2647010068440638  0.5886719707693773
  0.2352986303087474  0.7352104818207358  0.4113281152103578
  0.2636835154671192  0.5053903555839226  0.4946766939826980
  0.7338928755506599  0.4951849059820579  0.5055573719365695
  0.7321424258394479  0.0100902978659267  0.3368553289863982
  0.2645065065435496  0.9926243909937795  0.6642396290054838
  0.7485034922386823  0.7573447407869834  0.4113714856996878
  0.2499973261427482  0.2444087735146507  0.5895358022396813
  0.2594686682518783  0.2541820790476935  0.7521195954318628
  0.7359133639317610  0.7356758021039185  0.9123003983682370
  0.4863936164403732  0.9862973959996337  0.9192492717851550
  0.5095673610249057  0.0071515422616658  0.7474502840920703
  0.9844304640525815  0.7562611151859875  0.8286831292415200
  0.0092769906430376  0.2318040392363470  0.8368851476983480
  0.7616455749715124  0.5036480450221764  0.9960413893784522
  0.2612822354012712  0.5151104382970568  0.6710080950151259
  0.0096896160637422  0.5059526373764833  0.7509162175823060
  0.9885270845642585  0.4849717659991029  0.9187911417912439
  0.5152677364816588  0.2437194218060776  0.6714632280101684
  0.5050055416758140  0.7596027438055423  0.9960684688289710
  0.2352704557313220  0.0063962922319167  0.8358176570993100
  0.7583470796813738  0.9858667839613861  0.8293985014254320
  0.2506103491661716  0.7546561694411618  0.9105521375989386
  0.7481944183562356  0.2449275734269052  0.7494297955988958
  0.4897794103964094  0.4939519396694785  0.7490197815996298
  0.4997516337602744  0.4985586550570670  0.9198585841151274
  0.0046909884428350  0.2617960167876143  0.9969537368243415
  0.0127200460676674  0.7688109004625489  0.6705725131246622
  0.0000850038703297  0.9973944554048036  0.9150930359194176
  0.9905018682643493  0.9924895879574721  0.7526703965409961
  0.5061227624532723  0.7599164966643019  0.8374965922591378
  0.4869759631618010  0.2303237254597109  0.8293771182926063
  0.7565838865290628  0.2491966608760447  0.9113509998588655
  0.2401907015850021  0.7455323524583630  0.7479221441491689
  0.2373237130402119  0.4845710602429698  0.8290238480750332
  0.7555550270449792  0.5033653549467747  0.8381771493857483
  0.7418765983909661  0.0139298053462620  0.6706692782939795
  0.2634483395943347  0.0023881180507649  0.9971989473834375
  0.7518172537014882  0.7550058822707273  0.7506650413728698
  0.2372576742622557  0.2337468264688058  0.9141750177621628
 
  0.00000000E+00  0.00000000E+00  0.00000000E+00
  0.00000000E+00  0.00000000E+00  0.00000000E+00
  0.00000000E+00  0.00000000E+00  0.00000000E+00
  0.00000000E+00  0.00000000E+00  0.00000000E+00
  0.00000000E+00  0.00000000E+00  0.00000000E+00
  0.00000000E+00  0.00000000E+00  0.00000000E+00
  0.00000000E+00  0.00000000E+00  0.00000000E+00
  0.00000000E+00  0.00000000E+00  0.00000000E+00
  0.00000000E+00  0.00000000E+00  0.00000000E+00
  0.00000000E+00  0.00000000E+00  0.00000000E+00
  0.00000000E+00  0.00000000E+00  0.00000000E+00
  0.00000000E+00  0.00000000E+00  0.00000000E+00
  0.00000000E+00  0.00000000E+00  0.00000000E+00
  0.00000000E+00  0.00000000E+00  0.00000000E+00
  0.00000000E+00  0.00000000E+00  0.00000000E+00
  0.00000000E+00  0.00000000E+00  0.00000000E+00
  0.00000000E+00  0.00000000E+00  0.00000000E+00
  0.00000000E+00  0.00000000E+00  0.00000000E+00
  0.00000000E+00  0.00000000E+00  0.00000000E+00
  0.00000000E+00  0.00000000E+00  0.00000000E+00
  0.00000000E+00  0.00000000E+00  0.00000000E+00
  0.00000000E+00  0.00000000E+00  0.00000000E+00
  0.00000000E+00  0.00000000E+00  0.00000000E+00
  0.00000000E+00  0.00000000E+00  0.00000000E+00
  0.00000000E+00  0.00000000E+00  0.00000000E+00
  0.00000000E+00  0.00000000E+00  0.00000000E+00
  0.00000000E+00  0.00000000E+00  0.00000000E+00
  0.00000000E+00  0.00000000E+00  0.00000000E+00
  0.00000000E+00  0.00000000E+00  0.00000000E+00
  0.00000000E+00  0.00000000E+00  0.00000000E+00
  0.00000000E+00  0.00000000E+00  0.00000000E+00
  0.00000000E+00  0.00000000E+00  0.00000000E+00
  0.00000000E+00  0.00000000E+00  0.00000000E+00
  0.00000000E+00  0.00000000E+00  0.00000000E+00
  0.00000000E+00  0.00000000E+00  0.00000000E+00
  0.00000000E+00  0.00000000E+00  0.00000000E+00
  0.00000000E+00  0.00000000E+00  0.00000000E+00
  0.00000000E+00  0.00000000E+00  0.00000000E+00
  0.00000000E+00  0.00000000E+00  0.00000000E+00
  0.00000000E+00  0.00000000E+00  0.00000000E+00
  0.00000000E+00  0.00000000E+00  0.00000000E+00
  0.00000000E+00  0.00000000E+00  0.00000000E+00
  0.00000000E+00  0.00000000E+00  0.00000000E+00
  0.00000000E+00  0.00000000E+00  0.00000000E+00
  0.00000000E+00  0.00000000E+00  0.00000000E+00
  0.00000000E+00  0.00000000E+00  0.00000000E+00
  0.00000000E+00  0.00000000E+00  0.00000000E+00
  0.00000000E+00  0.00000000E+00  0.00000000E+00
  0.00000000E+00  0.00000000E+00  0.00000000E+00
  0.00000000E+00  0.00000000E+00  0.00000000E+00
  0.00000000E+00  0.00000000E+00  0.00000000E+00
  0.00000000E+00  0.00000000E+00  0.00000000E+00
  0.00000000E+00  0.00000000E+00  0.00000000E+00
  0.00000000E+00  0.00000000E+00  0.00000000E+00
  0.00000000E+00  0.00000000E+00  0.00000000E+00
  0.00000000E+00  0.00000000E+00  0.00000000E+00
  0.00000000E+00  0.00000000E+00  0.00000000E+00
  0.00000000E+00  0.00000000E+00  0.00000000E+00
  0.00000000E+00  0.00000000E+00  0.00000000E+00
  0.00000000E+00  0.00000000E+00  0.00000000E+00
  0.00000000E+00  0.00000000E+00  0.00000000E+00
  0.00000000E+00  0.00000000E+00  0.00000000E+00
  0.00000000E+00  0.00000000E+00  0.00000000E+00
  0.00000000E+00  0.00000000E+00  0.00000000E+00
  0.00000000E+00  0.00000000E+00  0.00000000E+00
  0.00000000E+00  0.00000000E+00  0.00000000E+00
  0.00000000E+00  0.00000000E+00  0.00000000E+00
  0.00000000E+00  0.00000000E+00  0.00000000E+00
  0.00000000E+00  0.00000000E+00  0.00000000E+00
  0.00000000E+00  0.00000000E+00  0.00000000E+00
  0.00000000E+00  0.00000000E+00  0.00000000E+00
  0.00000000E+00  0.00000000E+00  0.00000000E+00
  0.00000000E+00  0.00000000E+00  0.00000000E+00
  0.00000000E+00  0.00000000E+00  0.00000000E+00
  0.00000000E+00  0.00000000E+00  0.00000000E+00
  0.00000000E+00  0.00000000E+00  0.00000000E+00
  0.00000000E+00  0.00000000E+00  0.00000000E+00
  0.00000000E+00  0.00000000E+00  0.00000000E+00
  0.00000000E+00  0.00000000E+00  0.00000000E+00
  0.00000000E+00  0.00000000E+00  0.00000000E+00
  0.00000000E+00  0.00000000E+00  0.00000000E+00
  0.00000000E+00  0.00000000E+00  0.00000000E+00
  0.00000000E+00  0.00000000E+00  0.00000000E+00
  0.00000000E+00  0.00000000E+00  0.00000000E+00
  0.00000000E+00  0.00000000E+00  0.00000000E+00
  0.00000000E+00  0.00000000E+00  0.00000000E+00
  0.00000000E+00  0.00000000E+00  0.00000000E+00
  0.00000000E+00  0.00000000E+00  0.00000000E+00
  0.00000000E+00  0.00000000E+00  0.00000000E+00
  0.00000000E+00  0.00000000E+00  0.00000000E+00
  0.00000000E+00  0.00000000E+00  0.00000000E+00
  0.00000000E+00  0.00000000E+00  0.00000000E+00
  0.00000000E+00  0.00000000E+00  0.00000000E+00
  0.00000000E+00  0.00000000E+00  0.00000000E+00
  0.00000000E+00  0.00000000E+00  0.00000000E+00
  0.00000000E+00  0.00000000E+00  0.00000000E+00
  0.00000000E+00  0.00000000E+00  0.00000000E+00
  0.00000000E+00  0.00000000E+00  0.00000000E+00
  0.00000000E+00  0.00000000E+00  0.00000000E+00
  0.00000000E+00  0.00000000E+00  0.00000000E+00
  0.00000000E+00  0.00000000E+00  0.00000000E+00
  0.00000000E+00  0.00000000E+00  0.00000000E+00
  0.00000000E+00  0.00000000E+00  0.00000000E+00
  0.00000000E+00  0.00000000E+00  0.00000000E+00
  0.00000000E+00  0.00000000E+00  0.00000000E+00
  0.00000000E+00  0.00000000E+00  0.00000000E+00
  0.00000000E+00  0.00000000E+00  0.00000000E+00
  0.00000000E+00  0.00000000E+00  0.00000000E+00
  0.00000000E+00  0.00000000E+00  0.00000000E+00
  0.00000000E+00  0.00000000E+00  0.00000000E+00
  0.00000000E+00  0.00000000E+00  0.00000000E+00
  0.00000000E+00  0.00000000E+00  0.00000000E+00
  0.00000000E+00  0.00000000E+00  0.00000000E+00
  0.00000000E+00  0.00000000E+00  0.00000000E+00
  0.00000000E+00  0.00000000E+00  0.00000000E+00
  0.00000000E+00  0.00000000E+00  0.00000000E+00
  0.00000000E+00  0.00000000E+00  0.00000000E+00
  0.00000000E+00  0.00000000E+00  0.00000000E+00
  0.00000000E+00  0.00000000E+00  0.00000000E+00
  0.00000000E+00  0.00000000E+00  0.00000000E+00
  0.00000000E+00  0.00000000E+00  0.00000000E+00
  0.00000000E+00  0.00000000E+00  0.00000000E+00
  0.00000000E+00  0.00000000E+00  0.00000000E+00
  0.00000000E+00  0.00000000E+00  0.00000000E+00
  0.00000000E+00  0.00000000E+00  0.00000000E+00
  0.00000000E+00  0.00000000E+00  0.00000000E+00
  0.00000000E+00  0.00000000E+00  0.00000000E+00
  0.00000000E+00  0.00000000E+00  0.00000000E+00
  0.00000000E+00  0.00000000E+00  0.00000000E+00
  0.00000000E+00  0.00000000E+00  0.00000000E+00
  0.00000000E+00  0.00000000E+00  0.00000000E+00
  0.00000000E+00  0.00000000E+00  0.00000000E+00
  0.00000000E+00  0.00000000E+00  0.00000000E+00
  0.00000000E+00  0.00000000E+00  0.00000000E+00
  0.00000000E+00  0.00000000E+00  0.00000000E+00
  0.00000000E+00  0.00000000E+00  0.00000000E+00
  0.00000000E+00  0.00000000E+00  0.00000000E+00
  0.00000000E+00  0.00000000E+00  0.00000000E+00
  0.00000000E+00  0.00000000E+00  0.00000000E+00
  0.00000000E+00  0.00000000E+00  0.00000000E+00
  0.00000000E+00  0.00000000E+00  0.00000000E+00
  0.00000000E+00  0.00000000E+00  0.00000000E+00
  0.00000000E+00  0.00000000E+00  0.00000000E+00
  0.00000000E+00  0.00000000E+00  0.00000000E+00
  0.00000000E+00  0.00000000E+00  0.00000000E+00
  0.00000000E+00  0.00000000E+00  0.00000000E+00
  0.00000000E+00  0.00000000E+00  0.00000000E+00
  0.00000000E+00  0.00000000E+00  0.00000000E+00
  0.00000000E+00  0.00000000E+00  0.00000000E+00
  0.00000000E+00  0.00000000E+00  0.00000000E+00
  0.00000000E+00  0.00000000E+00  0.00000000E+00
  0.00000000E+00  0.00000000E+00  0.00000000E+00
  0.00000000E+00  0.00000000E+00  0.00000000E+00
  0.00000000E+00  0.00000000E+00  0.00000000E+00
  0.00000000E+00  0.00000000E+00  0.00000000E+00
  0.00000000E+00  0.00000000E+00  0.00000000E+00
  0.00000000E+00  0.00000000E+00  0.00000000E+00
  0.00000000E+00  0.00000000E+00  0.00000000E+00
  0.00000000E+00  0.00000000E+00  0.00000000E+00
  0.00000000E+00  0.00000000E+00  0.00000000E+00
