160 angstroemd0                         
   1.00000000000000     
     8.3547355506679448    0.0008509741651635   -0.0755001939031566
     0.0008549371866083    8.3513873089017210   -0.0077727446877998
    -0.2260488598901754   -0.0232829129333774   25.1641643434143241
   Ga   O 
    64    96
Direct
  0.1445173305485410  0.6196603955721414  0.8795079375102924
  0.6206919266405057  0.0987910487515009  0.5441552124861289
  0.8552328820751735  0.8851384397977314  0.2939041358017019
  0.8712083352911948  0.8528751574773606  0.6280465327755519
  0.6233330589119891  0.6254053131277284  0.0390441948243317
  0.3624059354772840  0.3843707239716104  0.2871449310826000
  0.1130968415509129  0.1241459343461768  0.0432341215334183
  0.6178165413249808  0.1219638936427641  0.2084758090961225
  0.3800656223522838  0.3556572306117962  0.6231579399224835
  0.6421265040251742  0.1321127459947396  0.8724225653889667
  0.3752705483318093  0.8686559000987386  0.4581515388403128
  0.8853890691384039  0.3829449950648768  0.7887466872967035
  0.1213309429215533  0.6072326531802594  0.5371395924332936
  0.8754513200023453  0.3858467781809742  0.1275671743519954
  0.6095075773507092  0.6353478608301262  0.3729572353404454
  0.8785675769252833  0.8896769360693820  0.9595125890760734
  0.3811206466280019  0.8919504068630646  0.7932400937390067
  0.1099214306507319  0.1274752067564409  0.3790851960811305
  0.3853810246210104  0.8879238527018547  0.1233351449939731
  0.1402454587210669  0.1208334267821674  0.7093433386811525
  0.4693505307044376  0.0226949457129840  0.3332473193110068
  0.7333402778984742  0.7296532866111319  0.4990041048201470
  0.2575802142842347  0.2550114038636457  0.8339685787958884
  0.7639711712463645  0.7523798337180326  0.8319276245320613
  0.2347192956707109  0.7638219750318703  0.3296320067502651
  0.9949773744335332  0.2462171338800004  0.2483357342909089
  0.2384224880187030  0.2500907596862942  0.1681300340431149
  0.0052483943417555  0.2398828838974837  0.5819103335891711
  0.0182827409655304  0.7406566305831551  0.7487434590955395
  0.7488478179418733  0.0062501387807213  0.0836268833976401
  0.7286180537523337  0.0080992102562242  0.4189189768799497
  0.4978386722447194  0.2625287053145519  0.7482185268528964
  0.7658588122767124  0.9961407384221556  0.7504128199102587
  0.7587733586987975  0.2451196855975777  0.6660294011101052
  0.0187281407552025  0.2477084910071654  0.9188626025395537
  0.2434888445966285  0.9744046183417349  0.5869949757881829
  0.4811030746058964  0.7204620048250910  0.5835036797466564
  0.7460864252251108  0.5018398149245301  0.2510746415329957
  0.5022700859455838  0.7633027220891646  0.9183379074589580
  0.0128149684272012  0.4993265465370104  0.6669836503526180
  0.2490098695285203  0.5060010988013693  0.0832494091784731
  0.4921857091627322  0.5152380495872888  0.8309350176633664
  0.4953353775794368  0.9773406376067936  0.6692092121852625
  0.7525151990346972  0.5067204213427676  0.9144109478262208
  0.9934197511095737  0.7417766118785034  0.4158183397097805
  0.9981090174029985  0.9917002564439980  0.5008316506473710
  0.0027006324936125  0.5111231885355197  0.0015584295825983
  0.7423833120293524  0.4845381318982002  0.5820625270481946
  0.4950402210525530  0.5004617468138688  0.1650562831040926
  0.2527304000886051  0.2438537108844975  0.4975012140011781
  0.2517235774259137  0.4917378981425466  0.4176521257046692
  0.0048361620603570  0.7678031945506169  0.0875448974659902
  0.0246837816615427  0.9950967993948642  0.8380220451664665
  0.4923710480873738  0.2438181572586302  0.0787487812299884
  0.7405692136706005  0.2458268460951657  0.9980966717834325
  0.9977016472715030  0.4944537144634201  0.3333514704756526
  0.7284647318553932  0.2577798155462762  0.3373177326303388
  0.4801608019075964  0.7666085156960785  0.2475884589023229
  0.7569518723378673  0.7662387653848465  0.1687576105000405
  0.2601289554164420  0.7625748799647257  0.9987651134215814
  0.6170776739992271  0.3696624476711013  0.4597691392582675
  0.3784093394180904  0.1272315938279890  0.9574738417779394
  0.3786651858548333  0.6201396292257416  0.7079262894135973
  0.1182128661542465  0.8845046094646010  0.2080787411095242
  0.2531104111160018  0.2557069147109351  0.0843756354984563
  0.7346025120074231  0.7440562520129598  0.2483576352280697
  0.5076937712744322  0.9924199203929847  0.2553335395329277
  0.5133560680974013  0.0150946326983372  0.0828597763431876
  0.9860684381225717  0.7590884448341280  0.1639102960323835
  0.0037790786538378  0.2601471419693286  0.1700693451090980
  0.7405794673619086  0.4972512783046739  0.3321292072075208
  0.2278775424124611  0.5297085014379085  0.0092064042310131
  0.9986361346762439  0.5195316601669540  0.0825500385661880
  0.9701543218065944  0.4796782348234575  0.2593420808199908
  0.5112395584616271  0.2521444814878913  0.0022254932002106
  0.4801575674958528  0.7619281203593887  0.3279376366867675
  0.2523784870592533  0.0096735433448407  0.1661332920629695
  0.7342840059661607  0.9933629403941807  0.1627423777590260
  0.2506337067705547  0.7626423024645209  0.2528694123488598
  0.7430426640001728  0.2535953986823986  0.0807792812121267
  0.4994373021483492  0.4920568238397252  0.0839180141234246
  0.5041278790331286  0.5169556718847849  0.2455585932446280
  0.9765415753295327  0.2504509618404729  0.3326870443868755
  0.0047921008106923  0.7528656895369559  0.0036382831626355
  0.9834074541130177  0.0079031828073767  0.2506823417912967
  0.9845514002096158  0.9968791417247848  0.0836379462337940
  0.5060392313587545  0.7441318681470250  0.1684418632183915
  0.4923572874859473  0.2585856310259242  0.1633149687559942
  0.7469515654328208  0.2580028223677632  0.2527027583808398
  0.2450520540280933  0.7565359881657850  0.0821247683286421
  0.2700162444123409  0.4829734797378856  0.1572679454845810
  0.7357924233288602  0.5157034739882167  0.1700245976081181
  0.7618221019424943  0.0183857702008765  0.0043512325096894
  0.2425722201623729  0.9945634767035988  0.3389946223404540
  0.7545831154849356  0.7584084083809072  0.0858469968543530
  0.2294816370450391  0.2586440478343643  0.2453905339531376
  0.2408341129992133  0.2570808497352136  0.4201207258809088
  0.7406425175127942  0.7310047531529016  0.5805068265619775
  0.4909137051009743  0.9775199572119156  0.5890343040086234
  0.5028371110939640  0.9806027710372244  0.4111365376409131
  0.9827970081848251  0.7499943021450154  0.4962571116469516
  0.0188175069122843  0.2153792468422318  0.5077545494538455
  0.7822053354375081  0.4672851981055334  0.6569598404695022
  0.2424388657708973  0.5151718050455975  0.3338969462525732
  0.0167036113462658  0.5181739823752520  0.4072938463014293
  0.0002429110869495  0.4795055573163297  0.5839867969299353
  0.4973015483179216  0.2498420753526896  0.3271406456381558
  0.4941833637486229  0.7501111893648408  0.6620916988878431
  0.2417723846729291  0.9952263712386256  0.5023762822696267
  0.7559265088401825  0.9801126756434823  0.4980937367554933
  0.2520038791664433  0.7458316722587338  0.5771584318444889
  0.7329902415622973  0.2383639005623352  0.4140161223252144
  0.4907885257947848  0.5055980557615422  0.4167772867031664
  0.5101550925551365  0.4929747981302270  0.5865208859385479
  0.0033697215103999  0.2419490772812555  0.6626463087349143
  0.9949857656761352  0.7514696333384284  0.3345612150464137
  0.0044227308302224  0.9860676717903667  0.5834279258627518
  0.9785557722019455  0.9842110500462429  0.4205291602729742
  0.5081675616652451  0.7590867711423891  0.5057223907887808
  0.4951331787340976  0.2311991017582769  0.5015798739386016
  0.7603118249029819  0.2335831560066574  0.5847006673373134
  0.2382115683114150  0.7412267853996917  0.4138091446285780
  0.2450239231904218  0.4784573774353068  0.4951340430520688
  0.7411399776127031  0.5003035933059875  0.5049529307575263
  0.7298026816684509  0.0122729937553954  0.3386417209978776
  0.2660950492356185  0.0052080986905642  0.6630908421119875
  0.7514543003768028  0.7539037033366813  0.4186690503849193
  0.2495750017480564  0.2240372214126488  0.5801712818387497
  0.2705863450855627  0.2383053829129844  0.7548356943428228
  0.7561303681832543  0.7535608882231091  0.9128490475669691
  0.5160375221494019  0.0041867657163395  0.9151632346042484
  0.5217378019766966  0.0090883254976767  0.7476913994538142
  0.0126081701044025  0.7570071826002043  0.8343819790599849
  0.0121863910919132  0.2476472642296985  0.8359434741365136
  0.7624830758819513  0.4963737437104765  0.9962163509620238
  0.2514022845757167  0.4824636970120585  0.6659011280058047
  0.0076956008835757  0.5065655854897017  0.7451871696292491
  0.9947303074927365  0.4951503644076859  0.9206546310151507
  0.5179091245611569  0.2320981092956864  0.6695838333640007
  0.4955400910286294  0.7512132654475454  0.9962109672070812
  0.2512003966665137  0.0173201057924109  0.8338819858369501
  0.7734443525126130  0.0014050808782580  0.8305821850094081
  0.2678556048966798  0.7542699991495420  0.9214941734026093
  0.7513550223579867  0.2389722758682673  0.7468095199529019
  0.5025116230065666  0.4923256590713893  0.7543942365124178
  0.5307722966138968  0.5326789110968779  0.9060348886446286
  0.9917981656594846  0.2677822985044677  0.9981977228743705
  0.0040791153634371  0.7326981753604891  0.6707166623499164
  0.9912371887949523  0.0190128152682589  0.9134457563598750
  0.0069988360915293  0.9951254954035209  0.7535650829069638
  0.5194219500680893  0.7591981181626937  0.8341826319968170
  0.5066585873819487  0.2626537541821291  0.8294271108766577
  0.7649190795653720  0.2675588899555936  0.9186634356443864
  0.2565898338550333  0.7548931012657658  0.7511985232027291
  0.2632537978594008  0.4890902149035820  0.8361275922360886
  0.7594950224492025  0.5126790581906999  0.8340008271684258
  0.7460692090276553  0.0011269917237836  0.6697169256991662
  0.2465007445198590  0.0020647029857998  0.0005867228510297
  0.7866927955612006  0.7714814755939381  0.7578231851076435
  0.2455596062218021  0.2485272311550966  0.9130427632985142
 
  0.00000000E+00  0.00000000E+00  0.00000000E+00
  0.00000000E+00  0.00000000E+00  0.00000000E+00
  0.00000000E+00  0.00000000E+00  0.00000000E+00
  0.00000000E+00  0.00000000E+00  0.00000000E+00
  0.00000000E+00  0.00000000E+00  0.00000000E+00
  0.00000000E+00  0.00000000E+00  0.00000000E+00
  0.00000000E+00  0.00000000E+00  0.00000000E+00
  0.00000000E+00  0.00000000E+00  0.00000000E+00
  0.00000000E+00  0.00000000E+00  0.00000000E+00
  0.00000000E+00  0.00000000E+00  0.00000000E+00
  0.00000000E+00  0.00000000E+00  0.00000000E+00
  0.00000000E+00  0.00000000E+00  0.00000000E+00
  0.00000000E+00  0.00000000E+00  0.00000000E+00
  0.00000000E+00  0.00000000E+00  0.00000000E+00
  0.00000000E+00  0.00000000E+00  0.00000000E+00
  0.00000000E+00  0.00000000E+00  0.00000000E+00
  0.00000000E+00  0.00000000E+00  0.00000000E+00
  0.00000000E+00  0.00000000E+00  0.00000000E+00
  0.00000000E+00  0.00000000E+00  0.00000000E+00
  0.00000000E+00  0.00000000E+00  0.00000000E+00
  0.00000000E+00  0.00000000E+00  0.00000000E+00
  0.00000000E+00  0.00000000E+00  0.00000000E+00
  0.00000000E+00  0.00000000E+00  0.00000000E+00
  0.00000000E+00  0.00000000E+00  0.00000000E+00
  0.00000000E+00  0.00000000E+00  0.00000000E+00
  0.00000000E+00  0.00000000E+00  0.00000000E+00
  0.00000000E+00  0.00000000E+00  0.00000000E+00
  0.00000000E+00  0.00000000E+00  0.00000000E+00
  0.00000000E+00  0.00000000E+00  0.00000000E+00
  0.00000000E+00  0.00000000E+00  0.00000000E+00
  0.00000000E+00  0.00000000E+00  0.00000000E+00
  0.00000000E+00  0.00000000E+00  0.00000000E+00
  0.00000000E+00  0.00000000E+00  0.00000000E+00
  0.00000000E+00  0.00000000E+00  0.00000000E+00
  0.00000000E+00  0.00000000E+00  0.00000000E+00
  0.00000000E+00  0.00000000E+00  0.00000000E+00
  0.00000000E+00  0.00000000E+00  0.00000000E+00
  0.00000000E+00  0.00000000E+00  0.00000000E+00
  0.00000000E+00  0.00000000E+00  0.00000000E+00
  0.00000000E+00  0.00000000E+00  0.00000000E+00
  0.00000000E+00  0.00000000E+00  0.00000000E+00
  0.00000000E+00  0.00000000E+00  0.00000000E+00
  0.00000000E+00  0.00000000E+00  0.00000000E+00
  0.00000000E+00  0.00000000E+00  0.00000000E+00
  0.00000000E+00  0.00000000E+00  0.00000000E+00
  0.00000000E+00  0.00000000E+00  0.00000000E+00
  0.00000000E+00  0.00000000E+00  0.00000000E+00
  0.00000000E+00  0.00000000E+00  0.00000000E+00
  0.00000000E+00  0.00000000E+00  0.00000000E+00
  0.00000000E+00  0.00000000E+00  0.00000000E+00
  0.00000000E+00  0.00000000E+00  0.00000000E+00
  0.00000000E+00  0.00000000E+00  0.00000000E+00
  0.00000000E+00  0.00000000E+00  0.00000000E+00
  0.00000000E+00  0.00000000E+00  0.00000000E+00
  0.00000000E+00  0.00000000E+00  0.00000000E+00
  0.00000000E+00  0.00000000E+00  0.00000000E+00
  0.00000000E+00  0.00000000E+00  0.00000000E+00
  0.00000000E+00  0.00000000E+00  0.00000000E+00
  0.00000000E+00  0.00000000E+00  0.00000000E+00
  0.00000000E+00  0.00000000E+00  0.00000000E+00
  0.00000000E+00  0.00000000E+00  0.00000000E+00
  0.00000000E+00  0.00000000E+00  0.00000000E+00
  0.00000000E+00  0.00000000E+00  0.00000000E+00
  0.00000000E+00  0.00000000E+00  0.00000000E+00
  0.00000000E+00  0.00000000E+00  0.00000000E+00
  0.00000000E+00  0.00000000E+00  0.00000000E+00
  0.00000000E+00  0.00000000E+00  0.00000000E+00
  0.00000000E+00  0.00000000E+00  0.00000000E+00
  0.00000000E+00  0.00000000E+00  0.00000000E+00
  0.00000000E+00  0.00000000E+00  0.00000000E+00
  0.00000000E+00  0.00000000E+00  0.00000000E+00
  0.00000000E+00  0.00000000E+00  0.00000000E+00
  0.00000000E+00  0.00000000E+00  0.00000000E+00
  0.00000000E+00  0.00000000E+00  0.00000000E+00
  0.00000000E+00  0.00000000E+00  0.00000000E+00
  0.00000000E+00  0.00000000E+00  0.00000000E+00
  0.00000000E+00  0.00000000E+00  0.00000000E+00
  0.00000000E+00  0.00000000E+00  0.00000000E+00
  0.00000000E+00  0.00000000E+00  0.00000000E+00
  0.00000000E+00  0.00000000E+00  0.00000000E+00
  0.00000000E+00  0.00000000E+00  0.00000000E+00
  0.00000000E+00  0.00000000E+00  0.00000000E+00
  0.00000000E+00  0.00000000E+00  0.00000000E+00
  0.00000000E+00  0.00000000E+00  0.00000000E+00
  0.00000000E+00  0.00000000E+00  0.00000000E+00
  0.00000000E+00  0.00000000E+00  0.00000000E+00
  0.00000000E+00  0.00000000E+00  0.00000000E+00
  0.00000000E+00  0.00000000E+00  0.00000000E+00
  0.00000000E+00  0.00000000E+00  0.00000000E+00
  0.00000000E+00  0.00000000E+00  0.00000000E+00
  0.00000000E+00  0.00000000E+00  0.00000000E+00
  0.00000000E+00  0.00000000E+00  0.00000000E+00
  0.00000000E+00  0.00000000E+00  0.00000000E+00
  0.00000000E+00  0.00000000E+00  0.00000000E+00
  0.00000000E+00  0.00000000E+00  0.00000000E+00
  0.00000000E+00  0.00000000E+00  0.00000000E+00
  0.00000000E+00  0.00000000E+00  0.00000000E+00
  0.00000000E+00  0.00000000E+00  0.00000000E+00
  0.00000000E+00  0.00000000E+00  0.00000000E+00
  0.00000000E+00  0.00000000E+00  0.00000000E+00
  0.00000000E+00  0.00000000E+00  0.00000000E+00
  0.00000000E+00  0.00000000E+00  0.00000000E+00
  0.00000000E+00  0.00000000E+00  0.00000000E+00
  0.00000000E+00  0.00000000E+00  0.00000000E+00
  0.00000000E+00  0.00000000E+00  0.00000000E+00
  0.00000000E+00  0.00000000E+00  0.00000000E+00
  0.00000000E+00  0.00000000E+00  0.00000000E+00
  0.00000000E+00  0.00000000E+00  0.00000000E+00
  0.00000000E+00  0.00000000E+00  0.00000000E+00
  0.00000000E+00  0.00000000E+00  0.00000000E+00
  0.00000000E+00  0.00000000E+00  0.00000000E+00
  0.00000000E+00  0.00000000E+00  0.00000000E+00
  0.00000000E+00  0.00000000E+00  0.00000000E+00
  0.00000000E+00  0.00000000E+00  0.00000000E+00
  0.00000000E+00  0.00000000E+00  0.00000000E+00
  0.00000000E+00  0.00000000E+00  0.00000000E+00
  0.00000000E+00  0.00000000E+00  0.00000000E+00
  0.00000000E+00  0.00000000E+00  0.00000000E+00
  0.00000000E+00  0.00000000E+00  0.00000000E+00
  0.00000000E+00  0.00000000E+00  0.00000000E+00
  0.00000000E+00  0.00000000E+00  0.00000000E+00
  0.00000000E+00  0.00000000E+00  0.00000000E+00
  0.00000000E+00  0.00000000E+00  0.00000000E+00
  0.00000000E+00  0.00000000E+00  0.00000000E+00
  0.00000000E+00  0.00000000E+00  0.00000000E+00
  0.00000000E+00  0.00000000E+00  0.00000000E+00
  0.00000000E+00  0.00000000E+00  0.00000000E+00
  0.00000000E+00  0.00000000E+00  0.00000000E+00
  0.00000000E+00  0.00000000E+00  0.00000000E+00
  0.00000000E+00  0.00000000E+00  0.00000000E+00
  0.00000000E+00  0.00000000E+00  0.00000000E+00
  0.00000000E+00  0.00000000E+00  0.00000000E+00
  0.00000000E+00  0.00000000E+00  0.00000000E+00
  0.00000000E+00  0.00000000E+00  0.00000000E+00
  0.00000000E+00  0.00000000E+00  0.00000000E+00
  0.00000000E+00  0.00000000E+00  0.00000000E+00
  0.00000000E+00  0.00000000E+00  0.00000000E+00
  0.00000000E+00  0.00000000E+00  0.00000000E+00
  0.00000000E+00  0.00000000E+00  0.00000000E+00
  0.00000000E+00  0.00000000E+00  0.00000000E+00
  0.00000000E+00  0.00000000E+00  0.00000000E+00
  0.00000000E+00  0.00000000E+00  0.00000000E+00
  0.00000000E+00  0.00000000E+00  0.00000000E+00
  0.00000000E+00  0.00000000E+00  0.00000000E+00
  0.00000000E+00  0.00000000E+00  0.00000000E+00
  0.00000000E+00  0.00000000E+00  0.00000000E+00
  0.00000000E+00  0.00000000E+00  0.00000000E+00
  0.00000000E+00  0.00000000E+00  0.00000000E+00
  0.00000000E+00  0.00000000E+00  0.00000000E+00
  0.00000000E+00  0.00000000E+00  0.00000000E+00
  0.00000000E+00  0.00000000E+00  0.00000000E+00
  0.00000000E+00  0.00000000E+00  0.00000000E+00
  0.00000000E+00  0.00000000E+00  0.00000000E+00
  0.00000000E+00  0.00000000E+00  0.00000000E+00
  0.00000000E+00  0.00000000E+00  0.00000000E+00
  0.00000000E+00  0.00000000E+00  0.00000000E+00
  0.00000000E+00  0.00000000E+00  0.00000000E+00
  0.00000000E+00  0.00000000E+00  0.00000000E+00
  0.00000000E+00  0.00000000E+00  0.00000000E+00
  0.00000000E+00  0.00000000E+00  0.00000000E+00
