160 angstroemd0                         
   1.00000000000000     
     8.3515287927167829   -0.0029250469199148    0.0521347707693890
    -0.0029076741520838    8.3713120646172463   -0.0020576494334912
     0.1562956838268382   -0.0061732507241804   25.0404498014771590
   Ga   O 
    64    96
Direct
  0.3783318666076179  0.8861468854849311  0.4619250520535499
  0.8934452617923826  0.3538523026689402  0.1275094207523274
  0.6126803878615094  0.1308016104052256  0.5406235758265372
  0.3738652923516863  0.3903838086314739  0.6230087811716689
  0.3851559223933107  0.3590025501688319  0.2848272388272978
  0.3582159705225061  0.3618075167426756  0.9568468520452141
  0.1380831803953614  0.6187865009445053  0.2058433526427315
  0.8774401656005669  0.3769129590440674  0.7918937041285874
  0.6257021215556372  0.1156094664500940  0.2075900648685383
  0.8684125621868851  0.8573039056960194  0.2933443281514037
  0.1207008357570611  0.1215877459559763  0.0417012194419116
  0.1127198064817399  0.6121549374667346  0.8772157354183751
  0.8782339886956768  0.8841840114123407  0.6234286397891302
  0.1326823255263519  0.1336738329942196  0.3761669676158229
  0.6127193451968478  0.1176149685789813  0.8710526215011407
  0.3682605133484943  0.8715934546180837  0.1245542886394753
  0.6227888595583640  0.6358290680838058  0.7117037631753943
  0.1136808170785450  0.1529554654601530  0.7049313153013587
  0.8651847419158225  0.8606576182245345  0.9648114080359027
  0.1395070387751226  0.6458710534801714  0.5427522334442907
  0.7404300241428264  0.4830656515727712  0.9200917260883721
  0.5037408801541223  0.0108505222201207  0.6679482477971828
  0.2332976972769381  0.5169387353668689  0.7516769759159905
  0.4919336745263972  0.2563003919942654  0.4141085331922068
  0.2494541453650083  0.7434247285148465  0.0007453378083435
  0.9927079040624235  0.9830757073572145  0.1679521271008071
  0.2451547126842404  0.9772867394535624  0.2536891699379375
  0.7363604294248740  0.9921453282732906  0.0855694300034087
  0.0219265787389957  0.5082926127503806  0.3335817310236101
  0.7534062038508451  0.2468291161163588  0.3320277007475334
  0.7523535321658277  0.5031994567511593  0.2467394835022322
  0.9907754655469801  0.7339472144466117  0.0880066543738845
  0.4959434114315499  0.5039596852984914  0.8345564007848283
  0.4981247997222320  0.5087415831223472  0.5021846839653825
  0.2354494225391542  0.2804042878698034  0.4997257680043861
  0.2317545356696188  0.2376589444358497  0.8311969640655165
  0.0223447198125361  0.7534440357612600  0.4143398608575196
  0.7633417332754199  0.7545777377959306  0.5034971311694540
  0.2347068411932481  0.7655006271558261  0.6702548933911004
  0.5011994041224260  0.2554468832086260  0.7489348077624052
  0.9895243245028112  0.4778309691688696  0.0027912049513334
  0.5000379040563028  0.7346068468240373  0.2489868735103904
  0.4896966941097108  0.9841154218524319  0.3343215343436137
  0.7534774204885115  0.0024770938012947  0.7519064298377575
  0.5003751701671982  0.7508015346083444  0.9169114276243592
  0.2428764479499333  0.0238626537998389  0.5849507933376574
  0.2749642771371442  0.4845285359032175  0.0852803217708201
  0.7543962802475694  0.2683438045955616  0.6609709237810114
  0.2308594413532393  0.9876811956606564  0.9136649948078251
  0.2787203451968397  0.2408407682631763  0.1637714022555758
  0.9841103107826127  0.5157305222851378  0.6656261132507904
  0.9726342684342661  0.2212700990386799  0.9168455267288799
  0.7530002704843164  0.7545643189484995  0.8322820345294790
  0.5095826173344493  0.7503720100031412  0.5867304732920516
  0.9992517621280095  0.0205363042318008  0.5029493968943646
  0.4993924189418740  0.9983469743437883  0.0020949955714244
  0.0068270011832931  0.2444347278315097  0.2502637943988993
  0.7535733040054147  0.0024702241716218  0.4164049073434401
  0.6300334976067988  0.3535914679591225  0.0398705152920812
  0.3788140827060814  0.6259660648569715  0.3722006706467985
  0.6338994891471569  0.6226829098620942  0.1279596061203242
  0.1161806512903977  0.8790691711432483  0.7909448514841256
  0.8780605875382836  0.3854524684123250  0.5402494689390437
  0.7591451809230766  0.5160150424013549  0.4111536000557226
  0.2398660910830544  0.2528855726159250  0.0869603549858753
  0.7400588556631358  0.7331639561759221  0.2510106490524457
  0.4946705597479094  0.9804439645634352  0.2545221821927128
  0.5024288420387519  0.9882112519897757  0.0804093691432720
  0.0171245803890422  0.7548558580798272  0.1644942932822540
  0.0161008494500550  0.2259394617854746  0.1725341036692639
  0.7756059019114102  0.4782071759212992  0.3326556594773545
  0.2414007731964774  0.5011221598162103  0.0032171188787159
  0.0075254278070423  0.4971419673421376  0.0812051502066139
  0.0010140934029662  0.4878641324638842  0.2532213917245700
  0.4881466655973049  0.2359585798351155  0.9988588974046765
  0.5002893964081481  0.7586942158828821  0.3305620830190542
  0.2404666982032608  0.0019059262319855  0.1706652375362785
  0.7649934339971535  0.0047860652944620  0.1640925257286073
  0.2644342521031707  0.7493433669722440  0.2484631436658469
  0.7634004976625611  0.2342372414076782  0.0831063657500572
  0.5079672128769557  0.4954088808818092  0.0821531228350294
  0.5217271255321143  0.5046326805804864  0.2541642186483941
  0.9991187611020309  0.2533555373010642  0.3310018211120729
  0.0088198543237807  0.7269630286484356  0.0051558485290942
  0.0051627979883066  0.9972600066081048  0.2499477581914546
  0.9954742933036942  0.9820391739512737  0.0862708536227254
  0.4944302081016562  0.7451106189969866  0.1686066277412003
  0.4942108509048119  0.2485780734685833  0.1754113651827976
  0.7667556431495860  0.2517214719695881  0.2535599874511837
  0.2419797596809911  0.7291908383049154  0.0807146874501902
  0.2419215893229756  0.4741619808925994  0.1621617802518148
  0.7674365818653759  0.4910549950686987  0.1689252645441201
  0.7325991819965466  0.9881728083366775  0.0060278270829035
  0.2597074348792296  0.0099279186944677  0.3310582273744728
  0.7652876816595231  0.7565787259061820  0.0880696809042639
  0.2406111676135384  0.2288573346505535  0.2475895448991066
  0.2651259472598364  0.2449876081492596  0.4224480821149759
  0.7382734408656748  0.7738724108320907  0.5788642836877110
  0.4900456239757343  0.9994912036865916  0.5869405805438994
  0.5117958924774101  0.0069255051843446  0.4154655152478423
  0.0048343178622399  0.7724883427968733  0.4979007320278238
  0.0090961256819898  0.2499330898783928  0.5001614349863506
  0.7515172219325567  0.5016128724197861  0.6691459540685538
  0.2570314942585197  0.4829582901191092  0.3328893820790974
  0.9879919643901275  0.5241530340762587  0.4108829093452704
  0.9994416746754839  0.5189337683728944  0.5818261085857118
  0.5090691502684430  0.2325299214292773  0.3334816269609289
  0.4900707906929623  0.7686179943630450  0.6652129742024013
  0.2456964965404076  0.0179075131226393  0.5041725818815920
  0.7566933779257976  0.0059524812120437  0.4969234836736947
  0.2671126142545052  0.7759297978381665  0.5876300150131382
  0.7276467741978736  0.2444451141040939  0.4099749828991680
  0.5191911754239242  0.4999093370591930  0.4180164165525327
  0.4971557528427034  0.5235443034353866  0.5798108254283908
  0.9867416026344642  0.2773883377400966  0.6617235488959607
  0.0054732340467483  0.7441569720946849  0.3362949354583129
  0.0141284252376161  0.0020357624061667  0.5793685428560921
  0.9967200103169547  0.9994769684079307  0.4204214710872869
  0.5128585061799329  0.7527276731284462  0.5036939926816610
  0.4932843389960128  0.2677326181786917  0.4953231149286790
  0.7408991092645490  0.2604248909794368  0.5814141718674797
  0.2567662226163266  0.7550773393449561  0.4187851824953541
  0.2656475685682186  0.5078651319905211  0.5012179831205988
  0.7426505059823142  0.5155400294443611  0.4950771331619297
  0.7436988444824265  0.0038838705454745  0.3367928479824009
  0.2552958520528310  0.0091578265920554  0.6642440521562468
  0.7734670424021340  0.7648009789520587  0.4255374730523570
  0.2678174886999886  0.2504762403958262  0.5780587233566379
  0.2569554512025585  0.2660763824122648  0.7505344961949468
  0.7456278547331564  0.7310106971112812  0.9162140263021716
  0.4800605609318933  0.9943291202025427  0.9169630218236495
  0.5196495152855792  0.0307982757701844  0.7418179126699149
  0.9915688935187232  0.7407691929961780  0.8329832793044650
  0.0056202298572862  0.2622941062393904  0.8380886141669550
  0.7594605156314149  0.4807187206730391  0.9961397202134367
  0.2408452697183084  0.5193259669156884  0.6684136790737458
  0.0081856892520693  0.4915135120528524  0.7449214292150483
  0.9858174370638066  0.4828673937292333  0.9213555189222887
  0.5093855961403752  0.2587208492603887  0.6662206731378827
  0.4737065449255614  0.7663537490509288  0.9910539822039611
  0.2350050575719155  0.0081949926544550  0.8360270472374505
  0.7423894101582947  0.9883700590912704  0.8291738522646928
  0.2445088262483283  0.7486177401257874  0.9178938129262788
  0.7434008343259293  0.2504992381132365  0.7470030156589715
  0.4837755701994586  0.4964586120779622  0.7525800129373595
  0.4987265195025665  0.4940201082294000  0.9154182412138533
  0.0139971189594450  0.2522411146903484  0.9941357367869004
  0.0069819010200441  0.7463739884102402  0.6615484741583897
  0.9990330841745623  0.9944111823770894  0.9230431164552231
  0.9943700765276015  0.0119806874058477  0.7465486920954110
  0.5189425747606456  0.7271522120960627  0.8422732289980324
  0.4810743608286468  0.2619854014711953  0.8288301802855352
  0.7464693914901532  0.2519698815388899  0.9100623448490115
  0.2405853016470856  0.7470158405177489  0.7460595913612371
  0.2539692653503197  0.4919810913862873  0.8310809104238440
  0.7404638291884144  0.5052736126549939  0.8354770875157698
  0.7475469833294204  0.0222643054206840  0.6658468530150321
  0.2505910396573399  0.9872178611486097  0.9972116497530076
  0.7432336541685248  0.7685516895185559  0.7532292514700687
  0.2342941241383391  0.2334126987143451  0.9112532100737241
 
  0.00000000E+00  0.00000000E+00  0.00000000E+00
  0.00000000E+00  0.00000000E+00  0.00000000E+00
  0.00000000E+00  0.00000000E+00  0.00000000E+00
  0.00000000E+00  0.00000000E+00  0.00000000E+00
  0.00000000E+00  0.00000000E+00  0.00000000E+00
  0.00000000E+00  0.00000000E+00  0.00000000E+00
  0.00000000E+00  0.00000000E+00  0.00000000E+00
  0.00000000E+00  0.00000000E+00  0.00000000E+00
  0.00000000E+00  0.00000000E+00  0.00000000E+00
  0.00000000E+00  0.00000000E+00  0.00000000E+00
  0.00000000E+00  0.00000000E+00  0.00000000E+00
  0.00000000E+00  0.00000000E+00  0.00000000E+00
  0.00000000E+00  0.00000000E+00  0.00000000E+00
  0.00000000E+00  0.00000000E+00  0.00000000E+00
  0.00000000E+00  0.00000000E+00  0.00000000E+00
  0.00000000E+00  0.00000000E+00  0.00000000E+00
  0.00000000E+00  0.00000000E+00  0.00000000E+00
  0.00000000E+00  0.00000000E+00  0.00000000E+00
  0.00000000E+00  0.00000000E+00  0.00000000E+00
  0.00000000E+00  0.00000000E+00  0.00000000E+00
  0.00000000E+00  0.00000000E+00  0.00000000E+00
  0.00000000E+00  0.00000000E+00  0.00000000E+00
  0.00000000E+00  0.00000000E+00  0.00000000E+00
  0.00000000E+00  0.00000000E+00  0.00000000E+00
  0.00000000E+00  0.00000000E+00  0.00000000E+00
  0.00000000E+00  0.00000000E+00  0.00000000E+00
  0.00000000E+00  0.00000000E+00  0.00000000E+00
  0.00000000E+00  0.00000000E+00  0.00000000E+00
  0.00000000E+00  0.00000000E+00  0.00000000E+00
  0.00000000E+00  0.00000000E+00  0.00000000E+00
  0.00000000E+00  0.00000000E+00  0.00000000E+00
  0.00000000E+00  0.00000000E+00  0.00000000E+00
  0.00000000E+00  0.00000000E+00  0.00000000E+00
  0.00000000E+00  0.00000000E+00  0.00000000E+00
  0.00000000E+00  0.00000000E+00  0.00000000E+00
  0.00000000E+00  0.00000000E+00  0.00000000E+00
  0.00000000E+00  0.00000000E+00  0.00000000E+00
  0.00000000E+00  0.00000000E+00  0.00000000E+00
  0.00000000E+00  0.00000000E+00  0.00000000E+00
  0.00000000E+00  0.00000000E+00  0.00000000E+00
  0.00000000E+00  0.00000000E+00  0.00000000E+00
  0.00000000E+00  0.00000000E+00  0.00000000E+00
  0.00000000E+00  0.00000000E+00  0.00000000E+00
  0.00000000E+00  0.00000000E+00  0.00000000E+00
  0.00000000E+00  0.00000000E+00  0.00000000E+00
  0.00000000E+00  0.00000000E+00  0.00000000E+00
  0.00000000E+00  0.00000000E+00  0.00000000E+00
  0.00000000E+00  0.00000000E+00  0.00000000E+00
  0.00000000E+00  0.00000000E+00  0.00000000E+00
  0.00000000E+00  0.00000000E+00  0.00000000E+00
  0.00000000E+00  0.00000000E+00  0.00000000E+00
  0.00000000E+00  0.00000000E+00  0.00000000E+00
  0.00000000E+00  0.00000000E+00  0.00000000E+00
  0.00000000E+00  0.00000000E+00  0.00000000E+00
  0.00000000E+00  0.00000000E+00  0.00000000E+00
  0.00000000E+00  0.00000000E+00  0.00000000E+00
  0.00000000E+00  0.00000000E+00  0.00000000E+00
  0.00000000E+00  0.00000000E+00  0.00000000E+00
  0.00000000E+00  0.00000000E+00  0.00000000E+00
  0.00000000E+00  0.00000000E+00  0.00000000E+00
  0.00000000E+00  0.00000000E+00  0.00000000E+00
  0.00000000E+00  0.00000000E+00  0.00000000E+00
  0.00000000E+00  0.00000000E+00  0.00000000E+00
  0.00000000E+00  0.00000000E+00  0.00000000E+00
  0.00000000E+00  0.00000000E+00  0.00000000E+00
  0.00000000E+00  0.00000000E+00  0.00000000E+00
  0.00000000E+00  0.00000000E+00  0.00000000E+00
  0.00000000E+00  0.00000000E+00  0.00000000E+00
  0.00000000E+00  0.00000000E+00  0.00000000E+00
  0.00000000E+00  0.00000000E+00  0.00000000E+00
  0.00000000E+00  0.00000000E+00  0.00000000E+00
  0.00000000E+00  0.00000000E+00  0.00000000E+00
  0.00000000E+00  0.00000000E+00  0.00000000E+00
  0.00000000E+00  0.00000000E+00  0.00000000E+00
  0.00000000E+00  0.00000000E+00  0.00000000E+00
  0.00000000E+00  0.00000000E+00  0.00000000E+00
  0.00000000E+00  0.00000000E+00  0.00000000E+00
  0.00000000E+00  0.00000000E+00  0.00000000E+00
  0.00000000E+00  0.00000000E+00  0.00000000E+00
  0.00000000E+00  0.00000000E+00  0.00000000E+00
  0.00000000E+00  0.00000000E+00  0.00000000E+00
  0.00000000E+00  0.00000000E+00  0.00000000E+00
  0.00000000E+00  0.00000000E+00  0.00000000E+00
  0.00000000E+00  0.00000000E+00  0.00000000E+00
  0.00000000E+00  0.00000000E+00  0.00000000E+00
  0.00000000E+00  0.00000000E+00  0.00000000E+00
  0.00000000E+00  0.00000000E+00  0.00000000E+00
  0.00000000E+00  0.00000000E+00  0.00000000E+00
  0.00000000E+00  0.00000000E+00  0.00000000E+00
  0.00000000E+00  0.00000000E+00  0.00000000E+00
  0.00000000E+00  0.00000000E+00  0.00000000E+00
  0.00000000E+00  0.00000000E+00  0.00000000E+00
  0.00000000E+00  0.00000000E+00  0.00000000E+00
  0.00000000E+00  0.00000000E+00  0.00000000E+00
  0.00000000E+00  0.00000000E+00  0.00000000E+00
  0.00000000E+00  0.00000000E+00  0.00000000E+00
  0.00000000E+00  0.00000000E+00  0.00000000E+00
  0.00000000E+00  0.00000000E+00  0.00000000E+00
  0.00000000E+00  0.00000000E+00  0.00000000E+00
  0.00000000E+00  0.00000000E+00  0.00000000E+00
  0.00000000E+00  0.00000000E+00  0.00000000E+00
  0.00000000E+00  0.00000000E+00  0.00000000E+00
  0.00000000E+00  0.00000000E+00  0.00000000E+00
  0.00000000E+00  0.00000000E+00  0.00000000E+00
  0.00000000E+00  0.00000000E+00  0.00000000E+00
  0.00000000E+00  0.00000000E+00  0.00000000E+00
  0.00000000E+00  0.00000000E+00  0.00000000E+00
  0.00000000E+00  0.00000000E+00  0.00000000E+00
  0.00000000E+00  0.00000000E+00  0.00000000E+00
  0.00000000E+00  0.00000000E+00  0.00000000E+00
  0.00000000E+00  0.00000000E+00  0.00000000E+00
  0.00000000E+00  0.00000000E+00  0.00000000E+00
  0.00000000E+00  0.00000000E+00  0.00000000E+00
  0.00000000E+00  0.00000000E+00  0.00000000E+00
  0.00000000E+00  0.00000000E+00  0.00000000E+00
  0.00000000E+00  0.00000000E+00  0.00000000E+00
  0.00000000E+00  0.00000000E+00  0.00000000E+00
  0.00000000E+00  0.00000000E+00  0.00000000E+00
  0.00000000E+00  0.00000000E+00  0.00000000E+00
  0.00000000E+00  0.00000000E+00  0.00000000E+00
  0.00000000E+00  0.00000000E+00  0.00000000E+00
  0.00000000E+00  0.00000000E+00  0.00000000E+00
  0.00000000E+00  0.00000000E+00  0.00000000E+00
  0.00000000E+00  0.00000000E+00  0.00000000E+00
  0.00000000E+00  0.00000000E+00  0.00000000E+00
  0.00000000E+00  0.00000000E+00  0.00000000E+00
  0.00000000E+00  0.00000000E+00  0.00000000E+00
  0.00000000E+00  0.00000000E+00  0.00000000E+00
  0.00000000E+00  0.00000000E+00  0.00000000E+00
  0.00000000E+00  0.00000000E+00  0.00000000E+00
  0.00000000E+00  0.00000000E+00  0.00000000E+00
  0.00000000E+00  0.00000000E+00  0.00000000E+00
  0.00000000E+00  0.00000000E+00  0.00000000E+00
  0.00000000E+00  0.00000000E+00  0.00000000E+00
  0.00000000E+00  0.00000000E+00  0.00000000E+00
  0.00000000E+00  0.00000000E+00  0.00000000E+00
  0.00000000E+00  0.00000000E+00  0.00000000E+00
  0.00000000E+00  0.00000000E+00  0.00000000E+00
  0.00000000E+00  0.00000000E+00  0.00000000E+00
  0.00000000E+00  0.00000000E+00  0.00000000E+00
  0.00000000E+00  0.00000000E+00  0.00000000E+00
  0.00000000E+00  0.00000000E+00  0.00000000E+00
  0.00000000E+00  0.00000000E+00  0.00000000E+00
  0.00000000E+00  0.00000000E+00  0.00000000E+00
  0.00000000E+00  0.00000000E+00  0.00000000E+00
  0.00000000E+00  0.00000000E+00  0.00000000E+00
  0.00000000E+00  0.00000000E+00  0.00000000E+00
  0.00000000E+00  0.00000000E+00  0.00000000E+00
  0.00000000E+00  0.00000000E+00  0.00000000E+00
  0.00000000E+00  0.00000000E+00  0.00000000E+00
  0.00000000E+00  0.00000000E+00  0.00000000E+00
  0.00000000E+00  0.00000000E+00  0.00000000E+00
  0.00000000E+00  0.00000000E+00  0.00000000E+00
  0.00000000E+00  0.00000000E+00  0.00000000E+00
  0.00000000E+00  0.00000000E+00  0.00000000E+00
  0.00000000E+00  0.00000000E+00  0.00000000E+00
  0.00000000E+00  0.00000000E+00  0.00000000E+00
  0.00000000E+00  0.00000000E+00  0.00000000E+00
  0.00000000E+00  0.00000000E+00  0.00000000E+00
  0.00000000E+00  0.00000000E+00  0.00000000E+00
